[VALIDATOR STDOUT]
Checking plan: /home/jfan5/Safety-gen/runs/benchmark/optic/grippers_20260129_162723/grippers/optic_results/grippers-n1-r6-o4-s4001.plan
Plan executed successfully - checking goal
Plan valid
Final value: 16 

Successful plans:
Value: 16
 /home/jfan5/Safety-gen/runs/benchmark/optic/grippers_20260129_162723/grippers/optic_results/grippers-n1-r6-o4-s4001.plan 16
